14,5	0,0	10,1	18,8	0,0	0,0	0,0	0,0	0,0	9,7
6,0	18,9	0,0	9,6	8,3	0,0	0,0	12,7	0,0	0,0
0,0	0,0	10,0	0,0	17,2	6,3	0,0	0,0	7,3	0,0
11,0	0,0	15,4	0,0	0,0	0,0	15,7	0,0	0,0	0,0
0,0	6,7	0,0	18,5	18,9	0,0	0,0	6,6	0,0	0,0
0,0	12,2	15,8	0,0	19,7	10,7	0,0	0,0	7,9	0,0
0,0	17,8	0,0	5,4	0,0	0,0	13,8	0,0	0,0	14,7
5,3	0,0	5,5	0,0	0,0	0,0	0,0	0,0	0,0	10,8
0,0	11,4	0,0	9,3	12,7	0,0	0,0	18,2	0,0	0,0
0,0	0,0	14,2	0,0	0,0	9,1	16,6	0,0	0,0	6,7
									
3,1	3,1	4,3	4,1	3,0	2,7	2,7	4,0	3,8	3,1
